LU2IN021/TME_4/Ex1TMESem3-pulp.lp
\* Ex1TMESem3 *\
Maximize
OBJ: 3 x1 + 2 x2 + 4 x3
Subject To
_C1: x1 + x2 + 2 x3 <= 4
_C2: 2 x1 + 3 x3 <= 5
_C3: 2 x1 + x2 + 3 x3 <= 7
End
