LU2IN021/TME_4/Ex1TMESem3-pulp.sol
Problem:    
Rows:       3
Columns:    3
Non-zeros:  8
Status:     OPTIMAL
Objective:  OBJ = 10.5 (MAXimum)

   No.   Row name   St   Activity     Lower bound   Upper bound    Marginal
------ ------------ -- ------------- ------------- ------------- -------------
     1 _C1          NU             4                           4             2 
     2 _C2          NU             5                           5           0.5 
     3 _C3          B            6.5                           7 

   No. Column name  St   Activity     Lower bound   Upper bound    Marginal
------ ------------ -- ------------- ------------- ------------- -------------
     1 x1           B            2.5             0               
     2 x2           B            1.5             0               
     3 x3           NL             0             0                        -1.5 

Karush-Kuhn-Tucker optimality conditions:

KKT.PE: max.abs.err = 0.00e+00 on row 0
        max.rel.err = 0.00e+00 on row 0
        High quality

KKT.PB: max.abs.err = 0.00e+00 on row 0
        max.rel.err = 0.00e+00 on row 0
        High quality

KKT.DE: max.abs.err = 0.00e+00 on column 0
        max.rel.err = 0.00e+00 on column 0
        High quality

KKT.DB: max.abs.err = 0.00e+00 on row 0
        max.rel.err = 0.00e+00 on row 0
        High quality

End of output
